Optimal - objective value 201.11000000
      4 x_4                    8                       0
      5 x_5                    8                       0
     11 x_11                   8                       0
     17 x_17                   8                       0
     23 x_23                   8                       0
     29 y_4                    1                    48.8
     30 y_5                    1                       0
     36 y_11                   1                   18.43
     42 y_17                   1                   34.79
     48 y_23                   1                   32.89
